webassembly/ejemplos_dzn/14/folder14_json_27.dzn
TERM = { '.', 's(2)', 'in_1', 'local_0', 'local_1', 'in_6', 'in_2', 'in_4', 'in_3', 's(1)', 's(0)', 'in_7', 'in_5', 's(3)', 'in_0'};
null = '.';
s = 14;
n = 14;
ndeps = 4;
max_registers_sz = 5;
NR = 2;
registers = [|'local_0', 'in_3', |'local_1', 's(2)'|];
dependencies = [|'i32.load16_u_1', 'i32.store8_5', |'i32.store8_5', 'call[function_index(0)]_9', |'call[function_index(0)]_9', 'call[function_index(1)]_12', |'call[function_index(1)]_12', 'i32.store16_13'|];
GET_ENUM = { GET1, GET2, GET3, GET4, GET5, GET6, GET7};
SET_ENUM = { SET1, SET2, SET3, SET4, SET5, SET6, SET7};
TEE_ENUM = { TEE1, TEE2, TEE3, TEE4, TEE5, TEE6, TEE7};
N = 6;
OP = { 'call[function_index(0)]_9', 'call[function_index(1)]_12', 'i32.add_0', 'i32.load16_u_1', 'i32.store8_5', 'i32.store16_13' };
in_ops = [2, 3, 2, 1, 2, 2 ];
out_ops = [1, 1, 1, 1, 0, 0 ];
in1 = ['s(1)', 'in_4', 'in_0', 's(0)', 'local_1', 's(3)' ];
in2 = ['in_2', 'in_5', 'in_1', '.', 's(1)', 'in_7' ];
in3 = ['.', 'in_6', '.', '.', '.', '.' ];
out1 = ['s(2)', 's(3)', 's(0)', 's(1)', '.', '.' ];
out2 = ['.', '.', '.', '.', '.', '.' ];
out3 = ['.', '.', '.', '.', '.', '.' ];
comm = [false, false, true, false, false, false ];
gas = [1, 1, 1, 1, 1, 1 ];
sz = [1, 1, 1, 1, 1, 1 ];
stor = [true, true, false, false, true, true ];
lb = [ 1, 1, 1, 1, 1, 1 ];
ub = [ 14, 14, 14, 14, 14, 14 ];
startstack = [ 'in_0', 'in_1', 'in_2', 'in_3', 'in_4', 'in_5', 'in_6', 'in_7', null, null, null, null, null, null ];
endstack = [ null, null, null, null, null, null, null, null, null, null, null, null, null, null ];
