webassembly/ejemplos_results/14/folder14_json_27.txt
value = 14;
fgas = [1, 1, 1, 1, 1, 1, 1, 1, 2, 1, 1, 1, 1, 1];
fsize = [1, 1, 1, 1, 1, 1, 1, 1, 1, 1, 1, 1, 1, 1];
states = 
[|    in_0,   in_1, in_2, in_3, in_4, in_5, in_6, in_7, '.', '.', '.', '.', '.', '.'
 |  's(0)',   in_2, in_3, in_4, in_5, in_6, in_7,  '.', '.', '.', '.', '.', '.', '.'
 |  's(0)',   in_2, in_3, in_4, in_5, in_6, in_7,  '.', '.', '.', '.', '.', '.', '.'
 |  's(0)',   in_2, in_3, in_4, in_5, in_6, in_7,  '.', '.', '.', '.', '.', '.', '.'
 |  's(1)',   in_2, in_3, in_4, in_5, in_6, in_7,  '.', '.', '.', '.', '.', '.', '.'
 |  's(2)',   in_0, in_4, in_5, in_6, in_7,  '.',  '.', '.', '.', '.', '.', '.', '.'
 |    in_0,   in_4, in_5, in_6, in_7,  '.',  '.',  '.', '.', '.', '.', '.', '.', '.'
 |    in_4,   in_5, in_6, in_7,  '.',  '.',  '.',  '.', '.', '.', '.', '.', '.', '.'
 |  's(3)', 's(3)', in_7,  '.',  '.',  '.',  '.',  '.', '.', '.', '.', '.', '.', '.'
 |  's(3)',   in_7,  '.',  '.',  '.',  '.',  '.',  '.', '.', '.', '.', '.', '.', '.'
 | local_1, 's(1)',  '.',  '.',  '.',  '.',  '.',  '.', '.', '.', '.', '.', '.', '.'
 |  's(2)',   in_3,  '.',  '.',  '.',  '.',  '.',  '.', '.', '.', '.', '.', '.', '.'
 |    in_3,    '.',  '.',  '.',  '.',  '.',  '.',  '.', '.', '.', '.', '.', '.', '.'
 |     '.',    '.',  '.',  '.',  '.',  '.',  '.',  '.', '.', '.', '.', '.', '.', '.'
 |     '.',    '.',  '.',  '.',  '.',  '.',  '.',  '.', '.', '.', '.', '.', '.', '.'
 |];
register_states = 
[| local_0, local_1,    '.', '.', '.', '.', '.'
 | local_0, local_1,    '.', '.', '.', '.', '.'
 |  's(0)', local_1,    '.', '.', '.', '.', '.'
 |  's(0)', local_1, 's(0)', '.', '.', '.', '.'
 |  's(0)', local_1, 's(0)', '.', '.', '.', '.'
 |  's(0)', local_1, 's(0)', '.', '.', '.', '.'
 |  's(2)', local_1, 's(0)', '.', '.', '.', '.'
 |    in_0, local_1, 's(0)', '.', '.', '.', '.'
 |    in_0, local_1, 's(0)', '.', '.', '.', '.'
 |    in_0, local_1, 's(0)', '.', '.', '.', '.'
 |    in_0, local_1, 's(0)', '.', '.', '.', '.'
 |    in_0, local_1, 's(0)', '.', '.', '.', '.'
 |    in_0,  's(2)', 's(0)', '.', '.', '.', '.'
 |    in_3,  's(2)', 's(0)', '.', '.', '.', '.'
 |    in_3,  's(2)',    '.', '.', '.', '.', '.'
 |];
program = [O('i32.add_0'), TEE(TEE1), TEE(TEE3), O('i32.load16_u_1'), O('call[function_index(0)]_9'), S(SET1), S(SET1), O('call[function_index(1)]_12'), POP, O('i32.store16_13'), O('i32.store8_5'), S(SET2), S(SET1), TEE(TEE3)];
% time elapsed: 0.32 s
----------
value = 13;
fgas = [1, 1, 1, 1, 1, 1, 1, 1, 2, 1, 1, 1, 1, 0];
fsize = [1, 1, 1, 1, 1, 1, 1, 1, 1, 1, 1, 1, 1, 1];
states = 
[|    in_0,   in_1, in_2, in_3, in_4, in_5, in_6, in_7, '.', '.', '.', '.', '.', '.'
 |  's(0)',   in_2, in_3, in_4, in_5, in_6, in_7,  '.', '.', '.', '.', '.', '.', '.'
 |  's(0)',   in_2, in_3, in_4, in_5, in_6, in_7,  '.', '.', '.', '.', '.', '.', '.'
 |  's(0)',   in_2, in_3, in_4, in_5, in_6, in_7,  '.', '.', '.', '.', '.', '.', '.'
 |  's(1)',   in_2, in_3, in_4, in_5, in_6, in_7,  '.', '.', '.', '.', '.', '.', '.'
 |  's(1)',   in_2, in_3, in_4, in_5, in_6, in_7,  '.', '.', '.', '.', '.', '.', '.'
 |  's(2)',   in_0, in_4, in_5, in_6, in_7,  '.',  '.', '.', '.', '.', '.', '.', '.'
 |  's(2)',   in_0, in_4, in_5, in_6, in_7,  '.',  '.', '.', '.', '.', '.', '.', '.'
 |    in_0,   in_4, in_5, in_6, in_7,  '.',  '.',  '.', '.', '.', '.', '.', '.', '.'
 |    in_4,   in_5, in_6, in_7,  '.',  '.',  '.',  '.', '.', '.', '.', '.', '.', '.'
 |  's(3)',   in_7, in_0,  '.',  '.',  '.',  '.',  '.', '.', '.', '.', '.', '.', '.'
 | local_1, 's(1)',  '.',  '.',  '.',  '.',  '.',  '.', '.', '.', '.', '.', '.', '.'
 |    in_3,    '.',  '.',  '.',  '.',  '.',  '.',  '.', '.', '.', '.', '.', '.', '.'
 |     '.',    '.',  '.',  '.',  '.',  '.',  '.',  '.', '.', '.', '.', '.', '.', '.'
 |     '.',    '.',  '.',  '.',  '.',  '.',  '.',  '.', '.', '.', '.', '.', '.', '.'
 |];
register_states = 
[| local_0, local_1, '.', '.', '.', '.', '.'
 | local_0, local_1, '.', '.', '.', '.', '.'
 |  's(0)', local_1, '.', '.', '.', '.', '.'
 |  's(0)',  's(0)', '.', '.', '.', '.', '.'
 |  's(0)',  's(0)', '.', '.', '.', '.', '.'
 |  's(1)',  's(0)', '.', '.', '.', '.', '.'
 |  's(1)',  's(0)', '.', '.', '.', '.', '.'
 |  's(1)',  's(2)', '.', '.', '.', '.', '.'
 |  's(1)',  's(2)', '.', '.', '.', '.', '.'
 |  's(1)',  's(2)', '.', '.', '.', '.', '.'
 |  's(1)',  's(2)', '.', '.', '.', '.', '.'
 |  's(1)',  's(2)', '.', '.', '.', '.', '.'
 |  's(1)',  's(2)', '.', '.', '.', '.', '.'
 |    in_3,  's(2)', '.', '.', '.', '.', '.'
 |    in_3,  's(2)', '.', '.', '.', '.', '.'
 |];
program = [O('i32.add_0'), TEE(TEE1), TEE(TEE2), O('i32.load16_u_1'), TEE(TEE1), O('call[function_index(0)]_9'), TEE(TEE2), S(SET2), POP, O('call[function_index(1)]_12'), O('i32.store16_13'), O('i32.store8_5'), S(SET1), NOP];
% time elapsed: 0.33 s
----------
value = 12;
fgas = [1, 1, 1, 1, 1, 2, 1, 1, 1, 1, 1, 1, 0, 0];
fsize = [1, 1, 1, 1, 1, 1, 1, 1, 1, 1, 1, 1, 1, 1];
states = 
[|    in_0,   in_1, in_2, in_3, in_4, in_5, in_6, in_7, '.', '.', '.', '.', '.', '.'
 |  's(0)',   in_0, in_3, in_4, in_5, in_6, in_7,  '.', '.', '.', '.', '.', '.', '.'
 |    in_0,   in_3, in_4, in_5, in_6, in_7,  '.',  '.', '.', '.', '.', '.', '.', '.'
 |    in_3,   in_4, in_5, in_6, in_7,  '.',  '.',  '.', '.', '.', '.', '.', '.', '.'
 |    in_4,   in_5, in_6, in_7,  '.',  '.',  '.',  '.', '.', '.', '.', '.', '.', '.'
 |  's(3)', 's(3)', in_7,  '.',  '.',  '.',  '.',  '.', '.', '.', '.', '.', '.', '.'
 |  's(3)',   in_7,  '.',  '.',  '.',  '.',  '.',  '.', '.', '.', '.', '.', '.', '.'
 | local_1, 's(1)',  '.',  '.',  '.',  '.',  '.',  '.', '.', '.', '.', '.', '.', '.'
 |  's(0)',   in_2,  '.',  '.',  '.',  '.',  '.',  '.', '.', '.', '.', '.', '.', '.'
 |  's(1)',   in_2,  '.',  '.',  '.',  '.',  '.',  '.', '.', '.', '.', '.', '.', '.'
 |  's(2)',    '.',  '.',  '.',  '.',  '.',  '.',  '.', '.', '.', '.', '.', '.', '.'
 |     '.',    '.',  '.',  '.',  '.',  '.',  '.',  '.', '.', '.', '.', '.', '.', '.'
 |     '.',    '.',  '.',  '.',  '.',  '.',  '.',  '.', '.', '.', '.', '.', '.', '.'
 |     '.',    '.',  '.',  '.',  '.',  '.',  '.',  '.', '.', '.', '.', '.', '.', '.'
 |     '.',    '.',  '.',  '.',  '.',  '.',  '.',  '.', '.', '.', '.', '.', '.', '.'
 |];
register_states = 
[| local_0, local_1,    '.', '.', '.', '.', '.'
 | local_0, local_1,    '.', '.', '.', '.', '.'
 | local_0, local_1, 's(0)', '.', '.', '.', '.'
 |    in_0, local_1, 's(0)', '.', '.', '.', '.'
 |    in_3, local_1, 's(0)', '.', '.', '.', '.'
 |    in_3, local_1, 's(0)', '.', '.', '.', '.'
 |    in_3, local_1, 's(0)', '.', '.', '.', '.'
 |    in_3, local_1, 's(0)', '.', '.', '.', '.'
 |    in_3, local_1, 's(0)', '.', '.', '.', '.'
 |    in_3, local_1, 's(0)', '.', '.', '.', '.'
 |    in_3, local_1, 's(0)', '.', '.', '.', '.'
 |    in_3,  's(2)', 's(0)', '.', '.', '.', '.'
 |    in_3,  's(2)',    '.', '.', '.', '.', '.'
 |    in_3,  's(2)',    '.', '.', '.', '.', '.'
 |    in_3,  's(2)',    '.', '.', '.', '.', '.'
 |];
program = [O('i32.add_0'), S(SET3), S(SET1), S(SET1), O('call[function_index(1)]_12'), POP, O('i32.store16_13'), O('i32.store8_5'), O('i32.load16_u_1'), O('call[function_index(0)]_9'), S(SET2), TEE(TEE3), NOP, NOP];
% time elapsed: 0.37 s
----------
value = 11;
fgas = [1, 1, 1, 1, 1, 1, 1, 1, 1, 1, 1, 0, 0, 0];
fsize = [1, 1, 1, 1, 1, 1, 1, 1, 1, 1, 1, 1, 1, 1];
states = 
[|    in_0,   in_1, in_2, in_3, in_4, in_5, in_6, in_7, '.', '.', '.', '.', '.', '.'
 |    in_0,   in_1, in_2, in_3, in_4, in_5, in_6, in_7, '.', '.', '.', '.', '.', '.'
 |  's(0)',   in_2, in_3, in_4, in_5, in_6, in_7,  '.', '.', '.', '.', '.', '.', '.'
 |  's(1)',   in_2, in_3, in_4, in_5, in_6, in_7,  '.', '.', '.', '.', '.', '.', '.'
 |  's(1)',   in_2, in_3, in_4, in_5, in_6, in_7,  '.', '.', '.', '.', '.', '.', '.'
 |  's(2)',   in_3, in_4, in_5, in_6, in_7,  '.',  '.', '.', '.', '.', '.', '.', '.'
 |  's(2)',   in_3, in_4, in_5, in_6, in_7,  '.',  '.', '.', '.', '.', '.', '.', '.'
 |    in_3,   in_4, in_5, in_6, in_7,  '.',  '.',  '.', '.', '.', '.', '.', '.', '.'
 |    in_4,   in_5, in_6, in_7,  '.',  '.',  '.',  '.', '.', '.', '.', '.', '.', '.'
 |  's(3)',   in_7, in_0,  '.',  '.',  '.',  '.',  '.', '.', '.', '.', '.', '.', '.'
 | local_1, 's(1)',  '.',  '.',  '.',  '.',  '.',  '.', '.', '.', '.', '.', '.', '.'
 |     '.',    '.',  '.',  '.',  '.',  '.',  '.',  '.', '.', '.', '.', '.', '.', '.'
 |     '.',    '.',  '.',  '.',  '.',  '.',  '.',  '.', '.', '.', '.', '.', '.', '.'
 |     '.',    '.',  '.',  '.',  '.',  '.',  '.',  '.', '.', '.', '.', '.', '.', '.'
 |     '.',    '.',  '.',  '.',  '.',  '.',  '.',  '.', '.', '.', '.', '.', '.', '.'
 |];
register_states = 
[| local_0, local_1, '.', '.', '.', '.', '.'
 | local_0,    in_0, '.', '.', '.', '.', '.'
 | local_0,    in_0, '.', '.', '.', '.', '.'
 | local_0,    in_0, '.', '.', '.', '.', '.'
 |  's(1)',    in_0, '.', '.', '.', '.', '.'
 |  's(1)',    in_0, '.', '.', '.', '.', '.'
 |  's(1)',  's(2)', '.', '.', '.', '.', '.'
 |  's(1)',  's(2)', '.', '.', '.', '.', '.'
 |    in_3,  's(2)', '.', '.', '.', '.', '.'
 |    in_3,  's(2)', '.', '.', '.', '.', '.'
 |    in_3,  's(2)', '.', '.', '.', '.', '.'
 |    in_3,  's(2)', '.', '.', '.', '.', '.'
 |    in_3,  's(2)', '.', '.', '.', '.', '.'
 |    in_3,  's(2)', '.', '.', '.', '.', '.'
 |    in_3,  's(2)', '.', '.', '.', '.', '.'
 |];
program = [TEE(TEE2), O('i32.add_0'), O('i32.load16_u_1'), TEE(TEE1), O('call[function_index(0)]_9'), TEE(TEE2), S(SET2), S(SET1), O('call[function_index(1)]_12'), O('i32.store16_13'), O('i32.store8_5'), NOP, NOP, NOP];
% time elapsed: 0.38 s
----------
value = 10;
fgas = [1, 1, 1, 1, 1, 1, 1, 1, 1, 1, 0, 0, 0, 0];
fsize = [1, 1, 1, 1, 1, 1, 1, 1, 1, 1, 1, 1, 1, 1];
states = 
[|    in_0,   in_1, in_2, in_3, in_4, in_5, in_6, in_7, '.', '.', '.', '.', '.', '.'
 |  's(0)',   in_0, in_3, in_4, in_5, in_6, in_7,  '.', '.', '.', '.', '.', '.', '.'
 |  's(1)',   in_0, in_3, in_4, in_5, in_6, in_7,  '.', '.', '.', '.', '.', '.', '.'
 |    in_0,   in_3, in_4, in_5, in_6, in_7,  '.',  '.', '.', '.', '.', '.', '.', '.'
 |    in_3,   in_4, in_5, in_6, in_7,  '.',  '.',  '.', '.', '.', '.', '.', '.', '.'
 |    in_4,   in_5, in_6, in_7,  '.',  '.',  '.',  '.', '.', '.', '.', '.', '.', '.'
 |  's(3)',   in_7, in_0,  '.',  '.',  '.',  '.',  '.', '.', '.', '.', '.', '.', '.'
 | local_1, 's(1)',  '.',  '.',  '.',  '.',  '.',  '.', '.', '.', '.', '.', '.', '.'
 |  's(1)',   in_2,  '.',  '.',  '.',  '.',  '.',  '.', '.', '.', '.', '.', '.', '.'
 |  's(2)',    '.',  '.',  '.',  '.',  '.',  '.',  '.', '.', '.', '.', '.', '.', '.'
 |     '.',    '.',  '.',  '.',  '.',  '.',  '.',  '.', '.', '.', '.', '.', '.', '.'
 |     '.',    '.',  '.',  '.',  '.',  '.',  '.',  '.', '.', '.', '.', '.', '.', '.'
 |     '.',    '.',  '.',  '.',  '.',  '.',  '.',  '.', '.', '.', '.', '.', '.', '.'
 |     '.',    '.',  '.',  '.',  '.',  '.',  '.',  '.', '.', '.', '.', '.', '.', '.'
 |     '.',    '.',  '.',  '.',  '.',  '.',  '.',  '.', '.', '.', '.', '.', '.', '.'
 |];
register_states = 
[| local_0, local_1, '.', '.', '.', '.', '.'
 | local_0, local_1, '.', '.', '.', '.', '.'
 | local_0, local_1, '.', '.', '.', '.', '.'
 | local_0,  's(1)', '.', '.', '.', '.', '.'
 |    in_0,  's(1)', '.', '.', '.', '.', '.'
 |    in_3,  's(1)', '.', '.', '.', '.', '.'
 |    in_3,  's(1)', '.', '.', '.', '.', '.'
 |    in_3,  's(1)', '.', '.', '.', '.', '.'
 |    in_3,  's(1)', '.', '.', '.', '.', '.'
 |    in_3,  's(1)', '.', '.', '.', '.', '.'
 |    in_3,  's(2)', '.', '.', '.', '.', '.'
 |    in_3,  's(2)', '.', '.', '.', '.', '.'
 |    in_3,  's(2)', '.', '.', '.', '.', '.'
 |    in_3,  's(2)', '.', '.', '.', '.', '.'
 |    in_3,  's(2)', '.', '.', '.', '.', '.'
 |];
program = [O('i32.add_0'), O('i32.load16_u_1'), S(SET2), S(SET1), S(SET1), O('call[function_index(1)]_12'), O('i32.store16_13'), O('i32.store8_5'), O('call[function_index(0)]_9'), S(SET2), NOP, NOP, NOP, NOP];
% time elapsed: 0.39 s
----------
value = 9;
fgas = [1, 1, 1, 1, 2, 1, 1, 1, 1, 0, 0, 0, 0, 0];
fsize = [1, 1, 1, 1, 1, 1, 1, 1, 1, 1, 1, 1, 1, 1];
states = 
[|    in_0,   in_1, in_2, in_3, in_4, in_5, in_6, in_7, '.', '.', '.', '.', '.', '.'
 |  's(0)',   in_2, in_3, in_4, in_5, in_6, in_7,  '.', '.', '.', '.', '.', '.', '.'
 |  's(1)',   in_2, in_3, in_4, in_5, in_6, in_7,  '.', '.', '.', '.', '.', '.', '.'
 |  's(2)',   in_0, in_4, in_5, in_6, in_7,  '.',  '.', '.', '.', '.', '.', '.', '.'
 |    in_0,   in_4, in_5, in_6, in_7,  '.',  '.',  '.', '.', '.', '.', '.', '.', '.'
 |    in_4,   in_5, in_6, in_7,  '.',  '.',  '.',  '.', '.', '.', '.', '.', '.', '.'
 |  's(3)',   in_7, in_0,  '.',  '.',  '.',  '.',  '.', '.', '.', '.', '.', '.', '.'
 | local_1, 's(1)',  '.',  '.',  '.',  '.',  '.',  '.', '.', '.', '.', '.', '.', '.'
 |    in_3,    '.',  '.',  '.',  '.',  '.',  '.',  '.', '.', '.', '.', '.', '.', '.'
 |     '.',    '.',  '.',  '.',  '.',  '.',  '.',  '.', '.', '.', '.', '.', '.', '.'
 |     '.',    '.',  '.',  '.',  '.',  '.',  '.',  '.', '.', '.', '.', '.', '.', '.'
 |     '.',    '.',  '.',  '.',  '.',  '.',  '.',  '.', '.', '.', '.', '.', '.', '.'
 |     '.',    '.',  '.',  '.',  '.',  '.',  '.',  '.', '.', '.', '.', '.', '.', '.'
 |     '.',    '.',  '.',  '.',  '.',  '.',  '.',  '.', '.', '.', '.', '.', '.', '.'
 |     '.',    '.',  '.',  '.',  '.',  '.',  '.',  '.', '.', '.', '.', '.', '.', '.'
 |];
register_states = 
[| local_0, local_1, '.', '.', '.', '.', '.'
 | local_0, local_1, '.', '.', '.', '.', '.'
 | local_0, local_1, '.', '.', '.', '.', '.'
 | local_0, local_1, '.', '.', '.', '.', '.'
 | local_0,  's(2)', '.', '.', '.', '.', '.'
 | local_0,  's(2)', '.', '.', '.', '.', '.'
 | local_0,  's(2)', '.', '.', '.', '.', '.'
 | local_0,  's(2)', '.', '.', '.', '.', '.'
 | local_0,  's(2)', '.', '.', '.', '.', '.'
 |    in_3,  's(2)', '.', '.', '.', '.', '.'
 |    in_3,  's(2)', '.', '.', '.', '.', '.'
 |    in_3,  's(2)', '.', '.', '.', '.', '.'
 |    in_3,  's(2)', '.', '.', '.', '.', '.'
 |    in_3,  's(2)', '.', '.', '.', '.', '.'
 |    in_3,  's(2)', '.', '.', '.', '.', '.'
 |];
program = [O('i32.add_0'), O('i32.load16_u_1'), O('call[function_index(0)]_9'), S(SET2), POP, O('call[function_index(1)]_12'), O('i32.store16_13'), O('i32.store8_5'), S(SET1), NOP, NOP, NOP, NOP, NOP];
% time elapsed: 0.40 s
----------
value = 8;
fgas = [1, 1, 1, 1, 1, 1, 1, 1, 0, 0, 0, 0, 0, 0];
fsize = [1, 1, 1, 1, 1, 1, 1, 1, 1, 1, 1, 1, 1, 1];
states = 
[|    in_0,   in_1, in_2, in_3, in_4, in_5, in_6, in_7, '.', '.', '.', '.', '.', '.'
 |  's(0)',   in_2, in_3, in_4, in_5, in_6, in_7,  '.', '.', '.', '.', '.', '.', '.'
 |  's(1)',   in_2, in_3, in_4, in_5, in_6, in_7,  '.', '.', '.', '.', '.', '.', '.'
 |  's(2)',   in_3, in_4, in_5, in_6, in_7,  '.',  '.', '.', '.', '.', '.', '.', '.'
 |    in_3,   in_4, in_5, in_6, in_7,  '.',  '.',  '.', '.', '.', '.', '.', '.', '.'
 |    in_4,   in_5, in_6, in_7,  '.',  '.',  '.',  '.', '.', '.', '.', '.', '.', '.'
 |  's(3)',   in_7, in_0,  '.',  '.',  '.',  '.',  '.', '.', '.', '.', '.', '.', '.'
 | local_1, 's(1)',  '.',  '.',  '.',  '.',  '.',  '.', '.', '.', '.', '.', '.', '.'
 |     '.',    '.',  '.',  '.',  '.',  '.',  '.',  '.', '.', '.', '.', '.', '.', '.'
 |     '.',    '.',  '.',  '.',  '.',  '.',  '.',  '.', '.', '.', '.', '.', '.', '.'
 |     '.',    '.',  '.',  '.',  '.',  '.',  '.',  '.', '.', '.', '.', '.', '.', '.'
 |     '.',    '.',  '.',  '.',  '.',  '.',  '.',  '.', '.', '.', '.', '.', '.', '.'
 |     '.',    '.',  '.',  '.',  '.',  '.',  '.',  '.', '.', '.', '.', '.', '.', '.'
 |     '.',    '.',  '.',  '.',  '.',  '.',  '.',  '.', '.', '.', '.', '.', '.', '.'
 |     '.',    '.',  '.',  '.',  '.',  '.',  '.',  '.', '.', '.', '.', '.', '.', '.'
 |];
register_states = 
[| local_0, local_1, '.', '.', '.', '.', '.'
 | local_0, local_1, '.', '.', '.', '.', '.'
 | local_0, local_1, '.', '.', '.', '.', '.'
 | local_0, local_1, '.', '.', '.', '.', '.'
 | local_0,  's(2)', '.', '.', '.', '.', '.'
 |    in_3,  's(2)', '.', '.', '.', '.', '.'
 |    in_3,  's(2)', '.', '.', '.', '.', '.'
 |    in_3,  's(2)', '.', '.', '.', '.', '.'
 |    in_3,  's(2)', '.', '.', '.', '.', '.'
 |    in_3,  's(2)', '.', '.', '.', '.', '.'
 |    in_3,  's(2)', '.', '.', '.', '.', '.'
 |    in_3,  's(2)', '.', '.', '.', '.', '.'
 |    in_3,  's(2)', '.', '.', '.', '.', '.'
 |    in_3,  's(2)', '.', '.', '.', '.', '.'
 |    in_3,  's(2)', '.', '.', '.', '.', '.'
 |];
program = [O('i32.add_0'), O('i32.load16_u_1'), O('call[function_index(0)]_9'), S(SET2), S(SET1), O('call[function_index(1)]_12'), O('i32.store16_13'), O('i32.store8_5'), NOP, NOP, NOP, NOP, NOP, NOP];
% time elapsed: 0.40 s
----------
==========
% time elapsed: 0.41 s
% [value > 7]
